instances/knapsack/discrete/knapsack_100_20.kp
75400
100
464

63 6.3 57
59 5.9 30
41 4.1 43
66 6.6 15
63 6.3 61
57 5.7 100
20 2.0 85
15 1.5 75
68 6.8 30
5 0.5 54
51 5.1 58
98 9.8 22
27 2.7 30
87 8.7 97
4 0.4 46
60 6.0 43
24 2.4 17
79 7.9 77
12 1.2 70
49 4.9 97
8 0.8 81
63 6.3 14
31 3.1 23
50 5.0 67
92 9.2 12
27 2.7 6
33 3.3 27
19 1.9 79
53 5.3 25
62 6.2 24
29 2.9 28
31 3.1 47
67 6.7 79
92 9.2 46
27 2.7 11
60 6.0 68
31 3.1 76
32 3.2 94
23 2.3 46
38 3.8 75
10 1.0 79
29 2.9 45
25 2.5 77
77 7.7 66
70 7.0 26
66 6.6 78
49 4.9 36
25 2.5 88
2 0.2 32
47 4.7 1
18 1.8 50
63 6.3 34
40 4.0 98
7 0.7 24
88 8.8 35
11 1.1 49
80 8.0 90
42 4.2 75
35 3.5 43
57 5.7 78
64 6.4 3
54 5.4 77
23 2.3 93
74 7.4 49
91 9.1 30
19 1.9 76
24 2.4 60
30 3.0 13
75 7.5 40
93 9.3 81
49 4.9 20
97 9.7 54
13 1.3 56
90 9.0 89
99 9.9 70
88 8.8 17
58 5.8 29
74 7.4 84
88 8.8 79
62 6.2 51
49 4.9 94
33 3.3 97
98 9.8 89
17 1.7 69
45 4.5 56
93 9.3 80
31 3.1 81
27 2.7 34
45 4.5 23
46 4.6 14
64 6.4 17
12 1.2 1
16 1.6 29
63 6.3 60
11 1.1 99
32 3.2 14
76 7.6 24
88 8.8 39
99 9.9 60
7 0.7 80

22678
510

[5.0 2.65 4.62 3.16 0.38 0.89 0.96 2.39 0.3 2.06 4.0 3.72 2.55 0.1 2.28 0.05 1.27 3.82 0.56 0.93 0.44 4.05 3.05 3.15 1.03 1.28 4.75 3.45 2.52 4.35 2.27 4.29 3.91 2.05 4.83 0.7 2.85 5.08 3.85 1.07 1.13 4.0 1.73 1.94 2.27 3.8 4.59 4.69 2.39 2.34 2.6 2.73 3.89 3.49 3.23 3.02 1.89 1.16 2.88 4.5 4.21 3.34 0.58 4.79 4.55 4.34 4.43 2.77 1.77 4.01 0.19 2.59 2.3 3.39 0.76 1.24 4.9 3.66 2.48 4.8 4.83 0.73 3.94 2.2 2.53 0.26 4.95 3.63 0.64 1.33 2.31 3.32 3.09 4.18 1.1 0.84 3.1 2.17 0.14 1.43]

[6 82 16 13 26 96 99 2 51 84 66 53 6 46 27 99 83 38 51 8 95 22 42 45 55 42 84 46 20 17 76 82 34 87 50 3 34 91 78 89 61 20 88 68 53 89 40 32 45 2 73 62 35 18 51 30 27 41 78 12 31 13 94 81 90 38 47 61 58 84 28 88 96 85 34 63 85 93 43 77 16 100 41 12 96 44 62 62 100 41 31 67 91 46 26 91 55 19 46 58]
