instances/knapsack/discrete_knapsack_uncertainty/knapsack_100_20.lp
\ Model knapsack_100_20
\ LP format - for model browsing. Use MPS format to capture full model detail.
\ Signature: 0x98b4e0718ea0846a
Minimize
  - 69 x[0] - 50 x[1] - 63 x[2] - 59 x[3] - 77 x[4] - 36 x[5] - 85 x[6]
   - 79 x[7] - 22 x[8] - 34 x[9] - 66 x[10] - 82 x[11] - 70 x[12]
   - 93 x[13] - 74 x[14] - 51 x[15] - 61 x[16] - 45 x[17] - 34 x[18]
   - 21 x[19] - 45 x[20] - 74 x[21] - 95 x[22] - 55 x[23] - 8 x[24]
   - 50 x[25] - 83 x[26] - 71 x[27] - 53 x[28] - 92 x[29] - 16 x[30]
   - 71 x[31] - 23 x[32] - 66 x[33] - 31 x[34] - 56 x[35] - 76 x[36]
   - 54 x[37] - 14 x[38] - 19 x[39] - 75 x[40] - 41 x[41] - 89 x[42]
   - 46 x[43] - 78 x[44] - 6 x[45] - 100 x[46] - 88 x[47] - 52 x[48]
   - 81 x[49] - 6 x[50] - 26 x[51] - 38 x[52] - 40 x[53] - 71 x[54]
   - 33 x[55] - 50 x[56] - 63 x[57] - 23 x[58] - 54 x[59] - 7 x[60]
   - 73 x[61] - 85 x[62] - 97 x[63] - 34 x[64] - 20 x[65] - 96 x[66]
   - 29 x[67] - 72 x[68] - 57 x[69] - 56 x[70] - 26 x[71] - 100 x[72]
   - 57 x[73] - 50 x[74] - 5 x[75] - 61 x[76] - 20 x[77] - 59 x[78]
   - 47 x[79] - 46 x[80] - 5 x[81] - 73 x[82] - 13 x[83] - 56 x[84]
   - 84 x[85] - 41 x[86] - 38 x[87] - 15 x[88] - 46 x[89] - 61 x[90]
   - 37 x[91] - 29 x[92] - 32 x[93] - 39 x[94] - 54 x[95] - 36 x[96]
   - 59 x[97] - 60 x[98] - 48 x[99]
Subject To
 primal_upper: 71 x[0] + 7 x[1] + 5 x[2] + 38 x[3] + 27 x[4] + 53 x[5]
   + 36 x[6] + 95 x[7] + 96 x[8] + 17 x[9] + 55 x[10] + 50 x[11] + 75 x[12]
   + 67 x[13] + 72 x[14] + 64 x[15] + 52 x[16] + 99 x[17] + 96 x[18]
   + 49 x[19] + 76 x[20] + 91 x[21] + 31 x[22] + 6 x[23] + 88 x[24]
   + 15 x[25] + 61 x[26] + 47 x[27] + 85 x[28] + 82 x[29] + 97 x[30]
   + 19 x[31] + 99 x[32] + 76 x[33] + 75 x[34] + 92 x[35] + 47 x[36]
   + 60 x[37] + 55 x[38] + 42 x[39] + 14 x[40] + 9 x[41] + 85 x[42]
   + 77 x[43] + 30 x[44] + 78 x[45] + 53 x[46] + 89 x[47] + 74 x[48]
   + 7 x[49] + 70 x[50] + 47 x[51] + 36 x[52] + 23 x[53] + 60 x[54]
   + 43 x[55] + 4 x[56] + 90 x[57] + 63 x[58] + 25 x[59] + 4 x[60]
   + 2 x[61] + 59 x[62] + 42 x[63] + 35 x[64] + 47 x[65] + 24 x[66]
   + 42 x[67] + 31 x[68] + 25 x[69] + 29 x[70] + 69 x[71] + 49 x[72]
   + 30 x[73] + 91 x[74] + 76 x[75] + 6 x[76] + 6 x[77] + 76 x[78]
   + 46 x[79] + 5 x[80] + 41 x[81] + 10 x[82] + 49 x[83] + 89 x[84]
   + 81 x[85] + 99 x[86] + 95 x[87] + 81 x[88] + 6 x[89] + 4 x[90]
   + 8 x[91] + 16 x[92] + 55 x[93] + 7 x[94] + 12 x[95] + 48 x[96]
   + 32 x[97] + 63 x[98] + 11 x[99] + 7.1 r[0] + 0.7 r[1] + 0.5 r[2]
   + 3.8 r[3] + 2.7 r[4] + 5.3 r[5] + 3.6 r[6] + 9.5 r[7] + 9.6 r[8]
   + 1.7 r[9] + 5.5 r[10] + 5 r[11] + 7.5 r[12] + 6.7 r[13] + 7.2 r[14]
   + 6.4 r[15] + 5.2 r[16] + 9.9 r[17] + 9.6 r[18] + 4.9 r[19] + 7.6 r[20]
   + 9.1 r[21] + 3.1 r[22] + 0.6 r[23] + 8.8 r[24] + 1.5 r[25] + 6.1 r[26]
   + 4.7 r[27] + 8.5 r[28] + 8.2 r[29] + 9.7 r[30] + 1.9 r[31] + 9.9 r[32]
   + 7.6 r[33] + 7.5 r[34] + 9.2 r[35] + 4.7 r[36] + 6 r[37] + 5.5 r[38]
   + 4.2 r[39] + 1.4 r[40] + 0.9 r[41] + 8.5 r[42] + 7.7 r[43] + 3 r[44]
   + 7.8 r[45] + 5.3 r[46] + 8.9 r[47] + 7.4 r[48] + 0.7 r[49] + 7 r[50]
   + 4.7 r[51] + 3.6 r[52] + 2.3 r[53] + 6 r[54] + 4.3 r[55] + 0.4 r[56]
   + 9 r[57] + 6.3 r[58] + 2.5 r[59] + 0.4 r[60] + 0.2 r[61] + 5.9 r[62]
   + 4.2 r[63] + 3.5 r[64] + 4.7 r[65] + 2.4 r[66] + 4.2 r[67] + 3.1 r[68]
   + 2.5 r[69] + 2.9 r[70] + 6.9 r[71] + 4.9 r[72] + 3 r[73] + 9.1 r[74]
   + 7.6 r[75] + 0.6 r[76] + 0.6 r[77] + 7.6 r[78] + 4.6 r[79] + 0.5 r[80]
   + 4.1 r[81] + r[82] + 4.9 r[83] + 8.9 r[84] + 8.1 r[85] + 9.9 r[86]
   + 9.5 r[87] + 8.1 r[88] + 0.6 r[89] + 0.4 r[90] + 0.8 r[91] + 1.6 r[92]
   + 5.5 r[93] + 0.7 r[94] + 1.2 r[95] + 4.8 r[96] + 3.2 r[97] + 6.3 r[98]
   + 1.1 r[99] <= 471
 primal_lower: 3.686975681777975 x[0] + 3.237655032440903 x[1]
   + 0.1012142190181659 x[2] + 2.76372018531259 x[3]
   + 0.5361157977171249 x[4] + 0.370954170398123 x[5]
   + 2.602463020820195 x[6] + 1.091094042212291 x[7]
   + 3.057261691501531 x[8] + 2.366303604935452 x[9]
   + 1.579146642260664 x[10] + 2.327936763442279 x[11]
   + 0.6058413378611452 x[12] + 4.029855709863503 x[13]
   + 1.591872286571579 x[14] + 2.16030642403992 x[15]
   + 3.093376591779107 x[16] + 2.052343373009848 x[17]
   + 1.392709861232719 x[18] + 1.730551439583317 x[19]
   + 3.177904315427904 x[20] + 0.0643310575547916 x[21]
   + 2.794268008634362 x[22] + 2.776032867785487 x[23]
   + 0.5529435788883866 x[24] + 3.731736477023134 x[25]
   + 1.052743275277111 x[26] + 1.44227132302186 x[27]
   + 2.99001171618623 x[28] + 4.44510677078053 x[29]
   + 1.610991292279006 x[30] + 0.413075964355418 x[31]
   + 0.2630271740508258 x[32] + 0.1342771069487367 x[33]
   + 0.0618649822715246 x[34] + 3.603093731267936 x[35]
   + 1.526292047001871 x[36] + 1.602903510484519 x[37]
   + 1.841401905498674 x[38] + 0.0867667295217165 x[39]
   + 0.8765310701560032 x[40] + 3.464353695643082 x[41]
   + 1.987492383660085 x[42] + 1.274796421865371 x[43]
   + 0.3414743648875062 x[44] + 2.262244755305154 x[45]
   + 2.090842575865574 x[46] + 2.703361751493158 x[47]
   + 3.450011543735573 x[48] + 3.111330833888354 x[49]
   + 2.800969978532718 x[50] + 0.2965632716421313 x[51]
   + 2.54985983048634 x[52] + 4.254943656956745 x[53]
   + 3.748393519931599 x[54] + 0.6257135936337412 x[55]
   + 2.095057248531881 x[56] + 3.265825040201672 x[57]
   + 3.511609323560117 x[58] + 1.506607634659203 x[59]
   + 0.2654295922856976 x[60] + 2.174640370109628 x[61]
   + 2.955437877734528 x[62] + 4.378013642501799 x[63]
   + 1.004097230331504 x[64] + 0.6276106100926924 x[65]
   + 0.6043755295531364 x[66] + 3.734975646265727 x[67]
   + 3.276749846951991 x[68] + 0.3849815983676682 x[69]
   + 4.662150549298437 x[70] + 4.669207079847271 x[71]
   + 2.45920878279694 x[72] + 0.5985633999298293 x[73]
   + 0.666870839061789 x[74] + 1.496667425557037 x[75]
   + 4.40314411235959 x[76] + 3.433548866773445 x[77]
   + 3.532001691560794 x[78] + 1.613134160801436 x[79]
   + 1.224869406463692 x[80] + 1.312499024232508 x[81]
   + 2.947865616250707 x[82] + 0.4173247103910762 x[83]
   + 3.946551135849941 x[84] + 2.464781303387586 x[85]
   + 3.348472553823354 x[86] + 2.951258661702216 x[87]
   + 2.995941761307904 x[88] + 0.863343752492286 x[89]
   + 0.5287790971927578 x[90] + 3.785735691316798 x[91]
   + 4.218339378126482 x[92] + 2.804343315480831 x[93]
   + 0.2016591777629148 x[94] + 0.9026290342541565 x[95]
   + 0.312845602436721 x[96] + 0.00483862468926913 x[97]
   + 2.835813340412037 x[98] + 4.496962289449769 x[99] + 61 u[0] + 13 u[1]
   + 83 u[2] + 80 u[3] + 89 u[4] + 11 u[5] + 6 u[6] + 93 u[7] + 6 u[8]
   + 71 u[9] + u[10] + 80 u[11] + 9 u[12] + 21 u[13] + 14 u[14] + 14 u[15]
   + 58 u[16] + 49 u[17] + 26 u[18] + 91 u[19] + 62 u[20] + 85 u[21]
   + 73 u[22] + 64 u[23] + 30 u[24] + 9 u[25] + 99 u[26] + 81 u[27]
   + 55 u[28] + 40 u[29] + 55 u[30] + 65 u[31] + 97 u[32] + 94 u[33]
   + 65 u[34] + 82 u[35] + 81 u[36] + 50 u[37] + u[38] + 96 u[39]
   + 64 u[40] + 79 u[41] + 35 u[42] + 99 u[43] + 88 u[44] + 32 u[45]
   + 31 u[46] + 7 u[47] + 44 u[48] + 41 u[49] + 60 u[50] + 33 u[51]
   + 18 u[52] + 37 u[53] + 22 u[54] + 65 u[55] + 30 u[56] + 44 u[57]
   + 93 u[58] + 27 u[59] + 78 u[60] + 60 u[61] + 45 u[62] + 12 u[63]
   + 37 u[64] + 61 u[65] + 90 u[66] + 56 u[67] + 61 u[68] + 31 u[69]
   + 23 u[70] + 75 u[71] + 51 u[72] + 36 u[73] + 85 u[74] + 14 u[75]
   + 84 u[76] + 16 u[77] + 30 u[78] + 56 u[79] + 63 u[80] + 19 u[81]
   + 40 u[82] + 31 u[83] + 71 u[84] + 91 u[85] + 9 u[86] + 57 u[87]
   + 23 u[88] + 60 u[89] + 38 u[90] + 6 u[91] + 58 u[92] + 45 u[93]
   + 61 u[94] + 22 u[95] + 46 u[96] + 10 u[97] + 69 u[98] + 9 u[99] <= 308
 mccormick1[0]: - u[0] + r[0] <= 0
 mccormick1[1]: - u[1] + r[1] <= 0
 mccormick1[2]: - u[2] + r[2] <= 0
 mccormick1[3]: - u[3] + r[3] <= 0
 mccormick1[4]: - u[4] + r[4] <= 0
 mccormick1[5]: - u[5] + r[5] <= 0
 mccormick1[6]: - u[6] + r[6] <= 0
 mccormick1[7]: - u[7] + r[7] <= 0
 mccormick1[8]: - u[8] + r[8] <= 0
 mccormick1[9]: - u[9] + r[9] <= 0
 mccormick1[10]: - u[10] + r[10] <= 0
 mccormick1[11]: - u[11] + r[11] <= 0
 mccormick1[12]: - u[12] + r[12] <= 0
 mccormick1[13]: - u[13] + r[13] <= 0
 mccormick1[14]: - u[14] + r[14] <= 0
 mccormick1[15]: - u[15] + r[15] <= 0
 mccormick1[16]: - u[16] + r[16] <= 0
 mccormick1[17]: - u[17] + r[17] <= 0
 mccormick1[18]: - u[18] + r[18] <= 0
 mccormick1[19]: - u[19] + r[19] <= 0
 mccormick1[20]: - u[20] + r[20] <= 0
 mccormick1[21]: - u[21] + r[21] <= 0
 mccormick1[22]: - u[22] + r[22] <= 0
 mccormick1[23]: - u[23] + r[23] <= 0
 mccormick1[24]: - u[24] + r[24] <= 0
 mccormick1[25]: - u[25] + r[25] <= 0
 mccormick1[26]: - u[26] + r[26] <= 0
 mccormick1[27]: - u[27] + r[27] <= 0
 mccormick1[28]: - u[28] + r[28] <= 0
 mccormick1[29]: - u[29] + r[29] <= 0
 mccormick1[30]: - u[30] + r[30] <= 0
 mccormick1[31]: - u[31] + r[31] <= 0
 mccormick1[32]: - u[32] + r[32] <= 0
 mccormick1[33]: - u[33] + r[33] <= 0
 mccormick1[34]: - u[34] + r[34] <= 0
 mccormick1[35]: - u[35] + r[35] <= 0
 mccormick1[36]: - u[36] + r[36] <= 0
 mccormick1[37]: - u[37] + r[37] <= 0
 mccormick1[38]: - u[38] + r[38] <= 0
 mccormick1[39]: - u[39] + r[39] <= 0
 mccormick1[40]: - u[40] + r[40] <= 0
 mccormick1[41]: - u[41] + r[41] <= 0
 mccormick1[42]: - u[42] + r[42] <= 0
 mccormick1[43]: - u[43] + r[43] <= 0
 mccormick1[44]: - u[44] + r[44] <= 0
 mccormick1[45]: - u[45] + r[45] <= 0
 mccormick1[46]: - u[46] + r[46] <= 0
 mccormick1[47]: - u[47] + r[47] <= 0
 mccormick1[48]: - u[48] + r[48] <= 0
 mccormick1[49]: - u[49] + r[49] <= 0
 mccormick1[50]: - u[50] + r[50] <= 0
 mccormick1[51]: - u[51] + r[51] <= 0
 mccormick1[52]: - u[52] + r[52] <= 0
 mccormick1[53]: - u[53] + r[53] <= 0
 mccormick1[54]: - u[54] + r[54] <= 0
 mccormick1[55]: - u[55] + r[55] <= 0
 mccormick1[56]: - u[56] + r[56] <= 0
 mccormick1[57]: - u[57] + r[57] <= 0
 mccormick1[58]: - u[58] + r[58] <= 0
 mccormick1[59]: - u[59] + r[59] <= 0
 mccormick1[60]: - u[60] + r[60] <= 0
 mccormick1[61]: - u[61] + r[61] <= 0
 mccormick1[62]: - u[62] + r[62] <= 0
 mccormick1[63]: - u[63] + r[63] <= 0
 mccormick1[64]: - u[64] + r[64] <= 0
 mccormick1[65]: - u[65] + r[65] <= 0
 mccormick1[66]: - u[66] + r[66] <= 0
 mccormick1[67]: - u[67] + r[67] <= 0
 mccormick1[68]: - u[68] + r[68] <= 0
 mccormick1[69]: - u[69] + r[69] <= 0
 mccormick1[70]: - u[70] + r[70] <= 0
 mccormick1[71]: - u[71] + r[71] <= 0
 mccormick1[72]: - u[72] + r[72] <= 0
 mccormick1[73]: - u[73] + r[73] <= 0
 mccormick1[74]: - u[74] + r[74] <= 0
 mccormick1[75]: - u[75] + r[75] <= 0
 mccormick1[76]: - u[76] + r[76] <= 0
 mccormick1[77]: - u[77] + r[77] <= 0
 mccormick1[78]: - u[78] + r[78] <= 0
 mccormick1[79]: - u[79] + r[79] <= 0
 mccormick1[80]: - u[80] + r[80] <= 0
 mccormick1[81]: - u[81] + r[81] <= 0
 mccormick1[82]: - u[82] + r[82] <= 0
 mccormick1[83]: - u[83] + r[83] <= 0
 mccormick1[84]: - u[84] + r[84] <= 0
 mccormick1[85]: - u[85] + r[85] <= 0
 mccormick1[86]: - u[86] + r[86] <= 0
 mccormick1[87]: - u[87] + r[87] <= 0
 mccormick1[88]: - u[88] + r[88] <= 0
 mccormick1[89]: - u[89] + r[89] <= 0
 mccormick1[90]: - u[90] + r[90] <= 0
 mccormick1[91]: - u[91] + r[91] <= 0
 mccormick1[92]: - u[92] + r[92] <= 0
 mccormick1[93]: - u[93] + r[93] <= 0
 mccormick1[94]: - u[94] + r[94] <= 0
 mccormick1[95]: - u[95] + r[95] <= 0
 mccormick1[96]: - u[96] + r[96] <= 0
 mccormick1[97]: - u[97] + r[97] <= 0
 mccormick1[98]: - u[98] + r[98] <= 0
 mccormick1[99]: - u[99] + r[99] <= 0
 mccormick2[0]: - x[0] + r[0] <= 0
 mccormick2[1]: - x[1] + r[1] <= 0
 mccormick2[2]: - x[2] + r[2] <= 0
 mccormick2[3]: - x[3] + r[3] <= 0
 mccormick2[4]: - x[4] + r[4] <= 0
 mccormick2[5]: - x[5] + r[5] <= 0
 mccormick2[6]: - x[6] + r[6] <= 0
 mccormick2[7]: - x[7] + r[7] <= 0
 mccormick2[8]: - x[8] + r[8] <= 0
 mccormick2[9]: - x[9] + r[9] <= 0
 mccormick2[10]: - x[10] + r[10] <= 0
 mccormick2[11]: - x[11] + r[11] <= 0
 mccormick2[12]: - x[12] + r[12] <= 0
 mccormick2[13]: - x[13] + r[13] <= 0
 mccormick2[14]: - x[14] + r[14] <= 0
 mccormick2[15]: - x[15] + r[15] <= 0
 mccormick2[16]: - x[16] + r[16] <= 0
 mccormick2[17]: - x[17] + r[17] <= 0
 mccormick2[18]: - x[18] + r[18] <= 0
 mccormick2[19]: - x[19] + r[19] <= 0
 mccormick2[20]: - x[20] + r[20] <= 0
 mccormick2[21]: - x[21] + r[21] <= 0
 mccormick2[22]: - x[22] + r[22] <= 0
 mccormick2[23]: - x[23] + r[23] <= 0
 mccormick2[24]: - x[24] + r[24] <= 0
 mccormick2[25]: - x[25] + r[25] <= 0
 mccormick2[26]: - x[26] + r[26] <= 0
 mccormick2[27]: - x[27] + r[27] <= 0
 mccormick2[28]: - x[28] + r[28] <= 0
 mccormick2[29]: - x[29] + r[29] <= 0
 mccormick2[30]: - x[30] + r[30] <= 0
 mccormick2[31]: - x[31] + r[31] <= 0
 mccormick2[32]: - x[32] + r[32] <= 0
 mccormick2[33]: - x[33] + r[33] <= 0
 mccormick2[34]: - x[34] + r[34] <= 0
 mccormick2[35]: - x[35] + r[35] <= 0
 mccormick2[36]: - x[36] + r[36] <= 0
 mccormick2[37]: - x[37] + r[37] <= 0
 mccormick2[38]: - x[38] + r[38] <= 0
 mccormick2[39]: - x[39] + r[39] <= 0
 mccormick2[40]: - x[40] + r[40] <= 0
 mccormick2[41]: - x[41] + r[41] <= 0
 mccormick2[42]: - x[42] + r[42] <= 0
 mccormick2[43]: - x[43] + r[43] <= 0
 mccormick2[44]: - x[44] + r[44] <= 0
 mccormick2[45]: - x[45] + r[45] <= 0
 mccormick2[46]: - x[46] + r[46] <= 0
 mccormick2[47]: - x[47] + r[47] <= 0
 mccormick2[48]: - x[48] + r[48] <= 0
 mccormick2[49]: - x[49] + r[49] <= 0
 mccormick2[50]: - x[50] + r[50] <= 0
 mccormick2[51]: - x[51] + r[51] <= 0
 mccormick2[52]: - x[52] + r[52] <= 0
 mccormick2[53]: - x[53] + r[53] <= 0
 mccormick2[54]: - x[54] + r[54] <= 0
 mccormick2[55]: - x[55] + r[55] <= 0
 mccormick2[56]: - x[56] + r[56] <= 0
 mccormick2[57]: - x[57] + r[57] <= 0
 mccormick2[58]: - x[58] + r[58] <= 0
 mccormick2[59]: - x[59] + r[59] <= 0
 mccormick2[60]: - x[60] + r[60] <= 0
 mccormick2[61]: - x[61] + r[61] <= 0
 mccormick2[62]: - x[62] + r[62] <= 0
 mccormick2[63]: - x[63] + r[63] <= 0
 mccormick2[64]: - x[64] + r[64] <= 0
 mccormick2[65]: - x[65] + r[65] <= 0
 mccormick2[66]: - x[66] + r[66] <= 0
 mccormick2[67]: - x[67] + r[67] <= 0
 mccormick2[68]: - x[68] + r[68] <= 0
 mccormick2[69]: - x[69] + r[69] <= 0
 mccormick2[70]: - x[70] + r[70] <= 0
 mccormick2[71]: - x[71] + r[71] <= 0
 mccormick2[72]: - x[72] + r[72] <= 0
 mccormick2[73]: - x[73] + r[73] <= 0
 mccormick2[74]: - x[74] + r[74] <= 0
 mccormick2[75]: - x[75] + r[75] <= 0
 mccormick2[76]: - x[76] + r[76] <= 0
 mccormick2[77]: - x[77] + r[77] <= 0
 mccormick2[78]: - x[78] + r[78] <= 0
 mccormick2[79]: - x[79] + r[79] <= 0
 mccormick2[80]: - x[80] + r[80] <= 0
 mccormick2[81]: - x[81] + r[81] <= 0
 mccormick2[82]: - x[82] + r[82] <= 0
 mccormick2[83]: - x[83] + r[83] <= 0
 mccormick2[84]: - x[84] + r[84] <= 0
 mccormick2[85]: - x[85] + r[85] <= 0
 mccormick2[86]: - x[86] + r[86] <= 0
 mccormick2[87]: - x[87] + r[87] <= 0
 mccormick2[88]: - x[88] + r[88] <= 0
 mccormick2[89]: - x[89] + r[89] <= 0
 mccormick2[90]: - x[90] + r[90] <= 0
 mccormick2[91]: - x[91] + r[91] <= 0
 mccormick2[92]: - x[92] + r[92] <= 0
 mccormick2[93]: - x[93] + r[93] <= 0
 mccormick2[94]: - x[94] + r[94] <= 0
 mccormick2[95]: - x[95] + r[95] <= 0
 mccormick2[96]: - x[96] + r[96] <= 0
 mccormick2[97]: - x[97] + r[97] <= 0
 mccormick2[98]: - x[98] + r[98] <= 0
 mccormick2[99]: - x[99] + r[99] <= 0
 mccormick3[0]: x[0] + u[0] - r[0] <= 1
 mccormick3[1]: x[1] + u[1] - r[1] <= 1
 mccormick3[2]: x[2] + u[2] - r[2] <= 1
 mccormick3[3]: x[3] + u[3] - r[3] <= 1
 mccormick3[4]: x[4] + u[4] - r[4] <= 1
 mccormick3[5]: x[5] + u[5] - r[5] <= 1
 mccormick3[6]: x[6] + u[6] - r[6] <= 1
 mccormick3[7]: x[7] + u[7] - r[7] <= 1
 mccormick3[8]: x[8] + u[8] - r[8] <= 1
 mccormick3[9]: x[9] + u[9] - r[9] <= 1
 mccormick3[10]: x[10] + u[10] - r[10] <= 1
 mccormick3[11]: x[11] + u[11] - r[11] <= 1
 mccormick3[12]: x[12] + u[12] - r[12] <= 1
 mccormick3[13]: x[13] + u[13] - r[13] <= 1
 mccormick3[14]: x[14] + u[14] - r[14] <= 1
 mccormick3[15]: x[15] + u[15] - r[15] <= 1
 mccormick3[16]: x[16] + u[16] - r[16] <= 1
 mccormick3[17]: x[17] + u[17] - r[17] <= 1
 mccormick3[18]: x[18] + u[18] - r[18] <= 1
 mccormick3[19]: x[19] + u[19] - r[19] <= 1
 mccormick3[20]: x[20] + u[20] - r[20] <= 1
 mccormick3[21]: x[21] + u[21] - r[21] <= 1
 mccormick3[22]: x[22] + u[22] - r[22] <= 1
 mccormick3[23]: x[23] + u[23] - r[23] <= 1
 mccormick3[24]: x[24] + u[24] - r[24] <= 1
 mccormick3[25]: x[25] + u[25] - r[25] <= 1
 mccormick3[26]: x[26] + u[26] - r[26] <= 1
 mccormick3[27]: x[27] + u[27] - r[27] <= 1
 mccormick3[28]: x[28] + u[28] - r[28] <= 1
 mccormick3[29]: x[29] + u[29] - r[29] <= 1
 mccormick3[30]: x[30] + u[30] - r[30] <= 1
 mccormick3[31]: x[31] + u[31] - r[31] <= 1
 mccormick3[32]: x[32] + u[32] - r[32] <= 1
 mccormick3[33]: x[33] + u[33] - r[33] <= 1
 mccormick3[34]: x[34] + u[34] - r[34] <= 1
 mccormick3[35]: x[35] + u[35] - r[35] <= 1
 mccormick3[36]: x[36] + u[36] - r[36] <= 1
 mccormick3[37]: x[37] + u[37] - r[37] <= 1
 mccormick3[38]: x[38] + u[38] - r[38] <= 1
 mccormick3[39]: x[39] + u[39] - r[39] <= 1
 mccormick3[40]: x[40] + u[40] - r[40] <= 1
 mccormick3[41]: x[41] + u[41] - r[41] <= 1
 mccormick3[42]: x[42] + u[42] - r[42] <= 1
 mccormick3[43]: x[43] + u[43] - r[43] <= 1
 mccormick3[44]: x[44] + u[44] - r[44] <= 1
 mccormick3[45]: x[45] + u[45] - r[45] <= 1
 mccormick3[46]: x[46] + u[46] - r[46] <= 1
 mccormick3[47]: x[47] + u[47] - r[47] <= 1
 mccormick3[48]: x[48] + u[48] - r[48] <= 1
 mccormick3[49]: x[49] + u[49] - r[49] <= 1
 mccormick3[50]: x[50] + u[50] - r[50] <= 1
 mccormick3[51]: x[51] + u[51] - r[51] <= 1
 mccormick3[52]: x[52] + u[52] - r[52] <= 1
 mccormick3[53]: x[53] + u[53] - r[53] <= 1
 mccormick3[54]: x[54] + u[54] - r[54] <= 1
 mccormick3[55]: x[55] + u[55] - r[55] <= 1
 mccormick3[56]: x[56] + u[56] - r[56] <= 1
 mccormick3[57]: x[57] + u[57] - r[57] <= 1
 mccormick3[58]: x[58] + u[58] - r[58] <= 1
 mccormick3[59]: x[59] + u[59] - r[59] <= 1
 mccormick3[60]: x[60] + u[60] - r[60] <= 1
 mccormick3[61]: x[61] + u[61] - r[61] <= 1
 mccormick3[62]: x[62] + u[62] - r[62] <= 1
 mccormick3[63]: x[63] + u[63] - r[63] <= 1
 mccormick3[64]: x[64] + u[64] - r[64] <= 1
 mccormick3[65]: x[65] + u[65] - r[65] <= 1
 mccormick3[66]: x[66] + u[66] - r[66] <= 1
 mccormick3[67]: x[67] + u[67] - r[67] <= 1
 mccormick3[68]: x[68] + u[68] - r[68] <= 1
 mccormick3[69]: x[69] + u[69] - r[69] <= 1
 mccormick3[70]: x[70] + u[70] - r[70] <= 1
 mccormick3[71]: x[71] + u[71] - r[71] <= 1
 mccormick3[72]: x[72] + u[72] - r[72] <= 1
 mccormick3[73]: x[73] + u[73] - r[73] <= 1
 mccormick3[74]: x[74] + u[74] - r[74] <= 1
 mccormick3[75]: x[75] + u[75] - r[75] <= 1
 mccormick3[76]: x[76] + u[76] - r[76] <= 1
 mccormick3[77]: x[77] + u[77] - r[77] <= 1
 mccormick3[78]: x[78] + u[78] - r[78] <= 1
 mccormick3[79]: x[79] + u[79] - r[79] <= 1
 mccormick3[80]: x[80] + u[80] - r[80] <= 1
 mccormick3[81]: x[81] + u[81] - r[81] <= 1
 mccormick3[82]: x[82] + u[82] - r[82] <= 1
 mccormick3[83]: x[83] + u[83] - r[83] <= 1
 mccormick3[84]: x[84] + u[84] - r[84] <= 1
 mccormick3[85]: x[85] + u[85] - r[85] <= 1
 mccormick3[86]: x[86] + u[86] - r[86] <= 1
 mccormick3[87]: x[87] + u[87] - r[87] <= 1
 mccormick3[88]: x[88] + u[88] - r[88] <= 1
 mccormick3[89]: x[89] + u[89] - r[89] <= 1
 mccormick3[90]: x[90] + u[90] - r[90] <= 1
 mccormick3[91]: x[91] + u[91] - r[91] <= 1
 mccormick3[92]: x[92] + u[92] - r[92] <= 1
 mccormick3[93]: x[93] + u[93] - r[93] <= 1
 mccormick3[94]: x[94] + u[94] - r[94] <= 1
 mccormick3[95]: x[95] + u[95] - r[95] <= 1
 mccormick3[96]: x[96] + u[96] - r[96] <= 1
 mccormick3[97]: x[97] + u[97] - r[97] <= 1
 mccormick3[98]: x[98] + u[98] - r[98] <= 1
 mccormick3[99]: x[99] + u[99] - r[99] <= 1
Bounds
Binaries
 x[0] x[1] x[2] x[3] x[4] x[5] x[6] x[7] x[8] x[9] x[10] x[11] x[12] x[13]
 x[14] x[15] x[16] x[17] x[18] x[19] x[20] x[21] x[22] x[23] x[24] x[25]
 x[26] x[27] x[28] x[29] x[30] x[31] x[32] x[33] x[34] x[35] x[36] x[37]
 x[38] x[39] x[40] x[41] x[42] x[43] x[44] x[45] x[46] x[47] x[48] x[49]
 x[50] x[51] x[52] x[53] x[54] x[55] x[56] x[57] x[58] x[59] x[60] x[61]
 x[62] x[63] x[64] x[65] x[66] x[67] x[68] x[69] x[70] x[71] x[72] x[73]
 x[74] x[75] x[76] x[77] x[78] x[79] x[80] x[81] x[82] x[83] x[84] x[85]
 x[86] x[87] x[88] x[89] x[90] x[91] x[92] x[93] x[94] x[95] x[96] x[97]
 x[98] x[99] u[0] u[1] u[2] u[3] u[4] u[5] u[6] u[7] u[8] u[9] u[10] u[11]
 u[12] u[13] u[14] u[15] u[16] u[17] u[18] u[19] u[20] u[21] u[22] u[23]
 u[24] u[25] u[26] u[27] u[28] u[29] u[30] u[31] u[32] u[33] u[34] u[35]
 u[36] u[37] u[38] u[39] u[40] u[41] u[42] u[43] u[44] u[45] u[46] u[47]
 u[48] u[49] u[50] u[51] u[52] u[53] u[54] u[55] u[56] u[57] u[58] u[59]
 u[60] u[61] u[62] u[63] u[64] u[65] u[66] u[67] u[68] u[69] u[70] u[71]
 u[72] u[73] u[74] u[75] u[76] u[77] u[78] u[79] u[80] u[81] u[82] u[83]
 u[84] u[85] u[86] u[87] u[88] u[89] u[90] u[91] u[92] u[93] u[94] u[95]
 u[96] u[97] u[98] u[99] r[0] r[1] r[2] r[3] r[4] r[5] r[6] r[7] r[8] r[9]
 r[10] r[11] r[12] r[13] r[14] r[15] r[16] r[17] r[18] r[19] r[20] r[21]
 r[22] r[23] r[24] r[25] r[26] r[27] r[28] r[29] r[30] r[31] r[32] r[33]
 r[34] r[35] r[36] r[37] r[38] r[39] r[40] r[41] r[42] r[43] r[44] r[45]
 r[46] r[47] r[48] r[49] r[50] r[51] r[52] r[53] r[54] r[55] r[56] r[57]
 r[58] r[59] r[60] r[61] r[62] r[63] r[64] r[65] r[66] r[67] r[68] r[69]
 r[70] r[71] r[72] r[73] r[74] r[75] r[76] r[77] r[78] r[79] r[80] r[81]
 r[82] r[83] r[84] r[85] r[86] r[87] r[88] r[89] r[90] r[91] r[92] r[93]
 r[94] r[95] r[96] r[97] r[98] r[99]
End
